units real
dimension 3
boundary p p p
atom_style full

pair_style lj/cut/coul/cut 9 9
pair_modify mix arithmetic tail no
bond_style harmonic
angle_style harmonic
dihedral_style opls
improper_style cvff
special_bonds lj 0.0 0.0 0.5 coul 0.0 0.0 0.8333
read_data data_1.benzene
thermo_style custom ebond eangle edihed eimp epair evdwl ecoul pe
run 0
